n = 34;
lu = [|568, 601
      |-885, -740
      |344, 741
      |-978, 379
      |-460, 255
      |-63, 187
      |104, 193
      |485, 781
      |-811, -242
      |844, 1006
      |-580, 632
      |-147, 1001
      |-1109, 402
      |377, 1041
      |-1056, 910
      |-558, 791
      |-737, -132
      |-688, -632
      |-801, 716
      |-676, 459
      |-408, 45
      |301, 701
      |559, 844
      |-76, 21
      |-424, 619
      |-485, -75
      |-835, 371
      |-177, 986
      |-140, 90
      |-1039, -555
      |-176, 595
      |-883, 335
      |-1033, 995
      |-1006, 266|];
